895040
0 7 23751
7 14 26226
14 15 36815
15 16 43848
16 13 42390
13 2 30026
2 8 153162
8 23 177197
23 20 108522
20 9 5744
9 10 5506
10 34 5412
34 1 10541
1 26 15287
26 17 12605
17 39 18404
39 18 13572
18 3 26532
3 21 23621
21 12 39393
12 27 6411
27 30 12751
30 24 7859
24 38 4093
38 29 6375
29 36 941
36 25 14545
25 32 15457
32 11 3966
11 4 38538
4 31 3289
31 19 24201
19 22 33856
22 37 7448
37 28 744
28 33 35283
33 6 56380
6 35 11793
35 5 22446
5 0 25297
